====================================================================================================================
File name: 100_20_47_9.def
Creation date: Mon Nov 24 20:40:29 CET 2014
Website: http://imopse.ii.pwr.edu.pl/
Reference:
Myszkowski P. B., Skowronski M. E., Olech L., Oslizlo K.,
Hybrid Ant Colony Optimization in solving Multi-Skill Resource-Constrained Project Scheduling Problem,
Soft Computing, DOI: DOI 10.1007/s00500-014-1455-x
====================================================================================================================
General characteristics:
Tasks: 100
Resources: 20
Precedence relations: 47
Number of skill types: 9
====================================================================================================================
ResourceID 	 Salary 	 Skills
1	 	 	98.6	 	 Q2: 0 	  Q6: 0 	  Q5: 0 	  Q3: 1 	  Q7: 2 	  Q1: 0
2	 	 	26.9	 	 Q7: 0 	  Q0: 2 	  Q8: 2 	  Q6: 0 	  Q5: 1 	  Q3: 1
3	 	 	65.3	 	 Q0: 2 	  Q6: 2 	  Q2: 2 	  Q3: 1 	  Q8: 2 	  Q7: 1
4	 	 	38.3	 	 Q4: 0 	  Q3: 1 	  Q8: 0 	  Q0: 0 	  Q5: 2 	  Q2: 1
5	 	 	61.6	 	 Q2: 0 	  Q6: 2 	  Q4: 0 	  Q7: 1 	  Q5: 2 	  Q0: 0
6	 	 	77.3	 	 Q3: 2 	  Q0: 1 	  Q8: 2 	  Q1: 1 	  Q5: 2 	  Q7: 2
7	 	 	44.3	 	 Q4: 2 	  Q1: 1 	  Q0: 1 	  Q5: 1 	  Q7: 1 	  Q8: 1
8	 	 	98.0	 	 Q3: 0 	  Q7: 0 	  Q8: 0 	  Q4: 1 	  Q0: 0 	  Q5: 1
9	 	 	46.9	 	 Q8: 0 	  Q6: 1 	  Q5: 1 	  Q3: 1 	  Q2: 0 	  Q1: 1
10	 	 	35.0	 	 Q3: 1 	  Q4: 2 	  Q5: 0 	  Q7: 0 	  Q1: 1 	  Q0: 2
11	 	 	91.3	 	 Q8: 1 	  Q5: 2 	  Q4: 0 	  Q0: 2 	  Q7: 2 	  Q2: 0
12	 	 	23.7	 	 Q6: 0 	  Q0: 1 	  Q4: 1 	  Q7: 1 	  Q2: 2 	  Q5: 2
13	 	 	27.1	 	 Q8: 0 	  Q5: 0 	  Q1: 0 	  Q7: 1 	  Q6: 0 	  Q0: 1
14	 	 	89.0	 	 Q2: 2 	  Q3: 0 	  Q5: 2 	  Q0: 1 	  Q6: 2 	  Q1: 1
15	 	 	98.5	 	 Q7: 2 	  Q4: 0 	  Q3: 0 	  Q8: 2 	  Q2: 2 	  Q6: 0
16	 	 	41.1	 	 Q0: 2 	  Q5: 0 	  Q4: 0 	  Q3: 2 	  Q1: 1 	  Q2: 0
17	 	 	46.2	 	 Q2: 0 	  Q3: 0 	  Q0: 1 	  Q8: 0 	  Q6: 0 	  Q7: 2
18	 	 	16.4	 	 Q1: 1 	  Q5: 2 	  Q7: 2 	  Q3: 0 	  Q6: 1 	  Q2: 2
19	 	 	50.3	 	 Q2: 2 	  Q0: 2 	  Q4: 0 	  Q8: 0 	  Q3: 1 	  Q7: 0
20	 	 	22.5	 	 Q2: 0 	  Q8: 2 	  Q1: 1 	  Q0: 0 	  Q6: 0 	  Q7: 0
====================================================================================================================
TaskID 	 Duration 	 Skill 	 Predecessor IDs
1	 	 	24	 Q3: 2
2	 	 	19	 Q5: 0
3	 	 	9	 Q5: 0
4	 	 	19	 Q5: 1
5	 	 	39	 Q4: 1	 	1
6	 	 	39	 Q6: 1
7	 	 	9	 Q7: 2
8	 	 	24	 Q5: 2
9	 	 	35	 Q3: 1
10	 	 	17	 Q1: 1
11	 	 	24	 Q6: 0
12	 	 	30	 Q0: 1
13	 	 	25	 Q0: 2
14	 	 	9	 Q6: 1
15	 	 	27	 Q6: 2
16	 	 	25	 Q5: 2
17	 	 	37	 Q8: 2	 	16
18	 	 	33	 Q5: 1
19	 	 	21	 Q3: 0
20	 	 	9	 Q2: 0	 	19
21	 	 	9	 Q5: 1
22	 	 	31	 Q3: 2
23	 	 	32	 Q7: 2
24	 	 	16	 Q3: 0
25	 	 	23	 Q3: 2
26	 	 	26	 Q7: 1
27	 	 	40	 Q5: 2
28	 	 	23	 Q8: 2
29	 	 	35	 Q8: 0
30	 	 	38	 Q2: 1
31	 	 	30	 Q2: 1
32	 	 	9	 Q2: 0
33	 	 	21	 Q3: 2	 	1
34	 	 	25	 Q7: 2
35	 	 	39	 Q1: 1
36	 	 	18	 Q7: 2	 	5
37	 	 	29	 Q0: 0
38	 	 	16	 Q6: 0
39	 	 	38	 Q8: 1
40	 	 	27	 Q3: 1	 	39
41	 	 	14	 Q1: 1
42	 	 	30	 Q5: 1	 	34
43	 	 	29	 Q8: 0
44	 	 	12	 Q8: 1
45	 	 	23	 Q6: 2
46	 	 	22	 Q7: 1	 	45
47	 	 	26	 Q8: 2
48	 	 	19	 Q4: 2	 	26	8
49	 	 	21	 Q3: 0
50	 	 	13	 Q5: 0	 	49
51	 	 	23	 Q6: 1
52	 	 	17	 Q8: 0	 	21	51
53	 	 	9	 Q0: 2
54	 	 	13	 Q0: 1	 	38
55	 	 	35	 Q0: 0	 	33
56	 	 	39	 Q4: 1	 	24
57	 	 	38	 Q2: 0
58	 	 	10	 Q7: 0
59	 	 	40	 Q2: 2	 	20
60	 	 	14	 Q1: 0	 	28
61	 	 	26	 Q4: 0	 	56
62	 	 	15	 Q4: 0	 	43
63	 	 	34	 Q3: 2
64	 	 	11	 Q4: 0
65	 	 	34	 Q0: 1
66	 	 	40	 Q8: 0	 	62	28	42
67	 	 	35	 Q6: 0
68	 	 	9	 Q2: 2
69	 	 	17	 Q3: 2	 	14
70	 	 	20	 Q3: 2	 	48
71	 	 	18	 Q6: 2
72	 	 	34	 Q3: 2	 	12
73	 	 	25	 Q0: 2	 	21
74	 	 	28	 Q8: 0
75	 	 	28	 Q0: 2	 	62
76	 	 	14	 Q4: 0
77	 	 	36	 Q6: 0	 	2
78	 	 	9	 Q5: 1
79	 	 	17	 Q0: 1	 	50
80	 	 	16	 Q1: 0	 	61
81	 	 	12	 Q5: 2
82	 	 	22	 Q8: 1	 	21	27
83	 	 	12	 Q4: 2
84	 	 	15	 Q0: 1
85	 	 	40	 Q4: 0
86	 	 	37	 Q7: 2
87	 	 	27	 Q4: 2
88	 	 	21	 Q5: 1	 	41	69
89	 	 	12	 Q1: 0	 	40
90	 	 	27	 Q4: 1
91	 	 	38	 Q8: 0	 	39	77
92	 	 	15	 Q1: 1
93	 	 	36	 Q7: 1	 	89
94	 	 	21	 Q8: 2
95	 	 	20	 Q4: 0	 	68	3
96	 	 	12	 Q5: 0
97	 	 	20	 Q4: 2	 	74	79
98	 	 	34	 Q4: 2	 	62
99	 	 	37	 Q2: 1	 	60	7
100	 	 	17	 Q0: 2	 	45
====================================================================================================================
